False
\Users\llavin\Desktop\test78\test\01.01.2019\results_DA
Reading model...
...model read.
creating competitive generators file...
...competitive generators recorded.
Loading data...
.. day-ahead data read.
Compiling instance...
...instance created.
Creating Offer Mitigation (model will solve as dispatch if TRUE)...
NOTE: storage offers will not be mitigated
...storage offer mitigation file created
Converting model to MPEC...
...converted
NOTE: initial MIP solve with only storage competitive to get feasible solution
Solving...

Welcome to IBM(R) ILOG(R) CPLEX(R) Interactive Optimizer 12.9.0.0
  with Simplex, Mixed Integer & Barrier Optimizers
5725-A06 5725-A29 5724-Y48 5724-Y49 5724-Y54 5724-Y55 5655-Y21
Copyright IBM Corp. 1988, 2019.  All Rights Reserved.

Type 'help' for a list of available commands.
Type 'help' followed by a command name for more
information on commands.

CPLEX> Logfile 'cplex.log' closed.
Logfile 'C:\Users\llavin\Desktop\test78\logs\tmpjx8iynnm.cplex.log' open.
CPLEX> New value for parallel optimization mode: -1
CPLEX> New value for mixed integer optimality gap tolerance: 0.01
CPLEX> New value for deterministic time limit in ticks: 30000
CPLEX> Problem 'C:\Users\llavin\Desktop\test78\logs\tmp4dbk0oul.pyomo.lp' read.
Read time = 0.23 sec. (13.80 ticks)
CPLEX> Problem name         : C:\Users\llavin\Desktop\test78\logs\tmp4dbk0oul.pyomo.lp
Objective sense      : Maximize
Variables            :   53320  [Nneg: 1,  Box: 21805,  Free: 4416,
                                 Binary: 27098]
Objective nonzeros   :    8970
Linear constraints   :  122164  [Less: 40983,  Greater: 58612,  Equal: 22569]
  Nonzeros           :  287247
  RHS nonzeros       :   66947

Variables            : Min LB: -5000.000        Max UB: 1000000.       
Objective nonzeros   : Min   : 0.1000000        Max   : 795.1000       
Linear constraints   :
  Nonzeros           : Min   : 0.1000000        Max   : 1000000.       
  RHS nonzeros       : Min   : 0.1000000        Max   : 1000000.       
CPLEX> CPXPARAM_Parallel                                -1
CPXPARAM_DetTimeLimit                            30000
CPXPARAM_MIP_Tolerances_MIPGap                   0.01
Tried aggregator 3 times.
MIP Presolve eliminated 88324 rows and 19153 columns.
MIP Presolve added 3337 rows and 0 columns.
MIP Presolve modified 24472 coefficients.
Aggregator did 12841 substitutions.
Reduced MIP has 24336 rows, 20744 columns, and 66998 nonzeros.
Reduced MIP has 8198 binaries, 0 generals, 0 SOSs, and 0 indicators.
Presolve time = 0.28 sec. (165.44 ticks)
Probing fixed 416 vars, tightened 5784 bounds.
Probing time = 0.06 sec. (18.66 ticks)
Tried aggregator 2 times.
MIP Presolve eliminated 929 rows and 835 columns.
MIP Presolve modified 3003 coefficients.
Aggregator did 46 substitutions.
Reduced MIP has 23361 rows, 19863 columns, and 64162 nonzeros.
Reduced MIP has 7781 binaries, 0 generals, 0 SOSs, and 0 indicators.
Presolve time = 0.11 sec. (89.46 ticks)
Probing fixed 0 vars, tightened 230 bounds.
Probing time = 0.13 sec. (22.76 ticks)
Clique table members: 42018.
MIP emphasis: balance optimality and feasibility.
MIP search method: dynamic search.
Parallel mode: opportunistic, using up to 32 threads.
Root relaxation solution time = 0.38 sec. (572.15 ticks)

        Nodes                                         Cuts/
   Node  Left     Objective  IInf  Best Integer    Best Bound    ItCnt     Gap

      0     0     3941.7611    85                   3941.7611     5379         
*     0+    0                         3880.7392     3941.7611             1.57%
*     0+    0                         3935.8595     3941.7611             0.15%

Root node processing (before b&c):
  Real time             =    1.91 sec. (1422.46 ticks)
Parallel b&c, 32 threads:
  Real time             =    0.00 sec. (0.00 ticks)
  Sync time (average)   =    0.00 sec.
  Wait time (average)   =    0.00 sec.
                          ------------
Total (root+branch&cut) =    1.91 sec. (1422.46 ticks)

Solution pool: 2 solutions saved.

MIP - Integer optimal, tolerance (0.01/1e-06):  Objective =  3.9358594833e+03
Current MIP best bound =  3.9417611057e+03 (gap = 5.90162, 0.15%)
Solution time =    1.91 sec.  Iterations = 5411  Nodes = 0 (1)
Deterministic time = 1422.61 ticks  (746.00 ticks/sec)

CPLEX> Incumbent solution written to file 'C:\Users\llavin\Desktop\test78\logs\tmphsqwag6t.cplex.sol'.
CPLEX> NOTE: no warmstart specified for MIP iteration, default behavior is true
NOTE: resolving with all competitive generators using storage-only solution to warmstart
Solving...

Welcome to IBM(R) ILOG(R) CPLEX(R) Interactive Optimizer 12.9.0.0
  with Simplex, Mixed Integer & Barrier Optimizers
5725-A06 5725-A29 5724-Y48 5724-Y49 5724-Y54 5724-Y55 5655-Y21
Copyright IBM Corp. 1988, 2019.  All Rights Reserved.

Type 'help' for a list of available commands.
Type 'help' followed by a command name for more
information on commands.

CPLEX> Logfile 'cplex.log' closed.
Logfile 'C:\Users\llavin\Desktop\test78\logs\tmpzqx7qxlh.cplex.log' open.
CPLEX> New value for parallel optimization mode: -1
CPLEX> New value for mixed integer optimality gap tolerance: 0.01
CPLEX> New value for deterministic time limit in ticks: 30000
CPLEX> Problem 'C:\Users\llavin\Desktop\test78\logs\tmp_qp2qjiw.pyomo.lp' read.
Read time = 0.22 sec. (13.82 ticks)
CPLEX> MIP start file 'C:\Users\llavin\Desktop\test78\logs\tmpw525xqsg.cplex.mst' read.
CPLEX> Problem name         : C:\Users\llavin\Desktop\test78\logs\tmp_qp2qjiw.pyomo.lp
Objective sense      : Maximize
Variables            :   54040  [Nneg: 1,  Box: 22525,  Free: 4416,
                                 Binary: 27098]
Objective nonzeros   :    9666
Linear constraints   :  122164  [Less: 40983,  Greater: 58612,  Equal: 22569]
  Nonzeros           :  287247
  RHS nonzeros       :   66947

Variables            : Min LB: -5000.000        Max UB: 1000000.       
Objective nonzeros   : Min   : 0.1000000        Max   : 795.1000       
Linear constraints   :
  Nonzeros           : Min   : 0.1000000        Max   : 1000000.       
  RHS nonzeros       : Min   : 0.1000000        Max   : 1000000.       
CPLEX> CPXPARAM_Parallel                                -1
CPXPARAM_DetTimeLimit                            30000
CPXPARAM_MIP_Tolerances_MIPGap                   0.01
1 of 1 MIP starts provided solutions.
MIP start 'm1' defined initial solution with objective 46702.9141.
Tried aggregator 3 times.
MIP Presolve eliminated 88324 rows and 19873 columns.
MIP Presolve added 3337 rows and 0 columns.
MIP Presolve modified 24472 coefficients.
Aggregator did 12841 substitutions.
Reduced MIP has 24336 rows, 20744 columns, and 66998 nonzeros.
Reduced MIP has 8198 binaries, 0 generals, 0 SOSs, and 0 indicators.
Presolve time = 0.28 sec. (165.79 ticks)
Probing fixed 416 vars, tightened 5784 bounds.
Probing time = 0.06 sec. (18.66 ticks)
Tried aggregator 2 times.
MIP Presolve eliminated 929 rows and 835 columns.
MIP Presolve modified 3003 coefficients.
Aggregator did 46 substitutions.
Reduced MIP has 23361 rows, 19863 columns, and 64162 nonzeros.
Reduced MIP has 7781 binaries, 0 generals, 0 SOSs, and 0 indicators.
Presolve time = 0.11 sec. (89.46 ticks)
Probing fixed 0 vars, tightened 230 bounds.
Probing time = 0.13 sec. (22.76 ticks)
Clique table members: 42018.
MIP emphasis: balance optimality and feasibility.
MIP search method: dynamic search.
Parallel mode: opportunistic, using up to 32 threads.
Root relaxation solution time = 0.41 sec. (596.40 ticks)

        Nodes                                         Cuts/
   Node  Left     Objective  IInf  Best Integer    Best Bound    ItCnt     Gap

*     0+    0                        46702.9141   7.33499e+07              --- 
      0     0    75986.2685   177    46702.9141    75986.2685     5671   62.70%
*     0+    0                        46702.9142    75986.2685            62.70%
      0     0    75120.6573    61    46702.9142     Cuts: 329     5807   60.85%
      0     0    75059.2064    70    46702.9142     Cuts: 170     5876   60.72%
      0     0    75024.9724    69    46702.9142     Cuts: 140     5896   60.64%
      0     0    75024.9724    70    46702.9142   Flowcuts: 2     5898   60.64%
      0     0    75024.9724    43    46702.9142   Flowcuts: 1     5899   60.64%
      0     0    75024.9724    46    46702.9142       Cuts: 4     5903   60.64%
      0    22        cutoff          46702.9142      Cuts: 23     6168   59.23%
Elapsed time = 5.27 sec. (2471.14 ticks, tree = 0.02 MB, solutions = 2)
    400    76    48288.4964    26    46702.9142    73938.1106     7065   58.32%
    986   416    48879.4957     7    46702.9142    73938.1106     9584   58.32%
   1406   821    52470.6675     8    46702.9142    73938.1106    12046   58.32%
   2084  1424    54051.3641    11    46702.9142    73938.1106    17777   58.32%
   2841  1669    53504.9439    18    46702.9142    73938.1106    19408   58.32%
   3675  2127    48964.1700     3    48964.1700    73938.1106    22872   51.00%
   4480  2569    50052.6297    10    48964.1700    71837.5111    27598   46.71%
   5359  3127    67888.5580    24    50040.0349    71765.1331    31929   43.42%
   6092  3681    64305.9257    24    50040.0349    71051.7581    35056   41.99%
   8595  6355    65272.8224    36    50040.0349    69227.5073    58926   38.34%
Elapsed time = 29.58 sec. (9160.70 ticks, tree = 54.44 MB, solutions = 6)
   9661   105    56265.1602    41    50040.0349    65272.8224    60897   30.44%
  11922   570    59301.4511    20    50040.0349    62108.0217    65498   24.12%
  14395  1919    50488.9221    22    50040.0349    61147.9874    80002   22.20%
  16262  3308    51363.2115    18    50040.0349    59423.0681    96987   18.75%
  20039  5319    50669.2346    25    50040.0349    57806.9335   121045   15.52%
  23502  7698    50607.1486    21    50040.0349    56892.2434   166196   13.69%
  27313  7744    50115.3074    10    50040.0349    54937.8592   164355    9.79%
  31107  7974        cutoff          50040.0349    52739.7730   183673    5.40%
  35231  8487    50265.1513    15    50040.0349    52739.7730   207936    5.40%
  39576  9593    51504.5636    22    50064.8583    52042.7290   224279    3.95%
Elapsed time = 82.16 sec. (18701.63 ticks, tree = 68.68 MB, solutions = 10)
  43834 12074        cutoff          50764.8487    51658.3027   240469    1.76%
  46921  3829    50769.4243     9    50764.8487    51505.1956   254412    1.46%
  47498  6732    50800.7299    13    50764.8487    51505.1956   279384    1.46%
  50182  7512    50919.9797    24    50764.8487    51429.9944   285160    1.31%
  52647  7163    50773.5534    10    50764.8487    51284.8444   282566    1.02%

GUB cover cuts applied:  1
Cover cuts applied:  10
Implied bound cuts applied:  6
Flow cuts applied:  47
Mixed integer rounding cuts applied:  8
Gomory fractional cuts applied:  12

Root node processing (before b&c):
  Real time             =    3.55 sec. (2453.81 ticks)
Parallel b&c, 32 threads:
  Real time             =   89.48 sec. (21924.46 ticks)
  Sync time (average)   =    2.47 sec.
  Wait time (average)   =    0.19 sec.
                          ------------
Total (root+branch&cut) =   93.03 sec. (24378.27 ticks)

Solution pool: 13 solutions saved.

MIP - Integer optimal, tolerance (0.01/1e-06):  Objective =  5.0764848697e+04
Current MIP best bound =  5.1272283351e+04 (gap = 507.435, 1.00%)
Solution time =   93.06 sec.  Iterations = 300373  Nodes = 53064 (8980)
Deterministic time = 24378.42 ticks  (261.96 ticks/sec)

CPLEX> Incumbent solution written to file 'C:\Users\llavin\Desktop\test78\logs\tmpvbyxa7kg.cplex.sol'.
CPLEX> Exporting results... 
